Water Network: d11_kadu.dat
*******************************************************************************

-------------------------------- Solving with gurobi --------------------------
min_demand: 0.0333
max_demand: 0.3067
max_flow: 3.0869000000000004
<<<<<<< HEAD
Gurobi 12.0.1: Set parameter LogToConsole to value 1
=======
Gurobi 11.0.2: Set parameter LogToConsole to value 1
>>>>>>> 084e68c (add approximation result using gurobi solver)
  tech:outlev = 1
Set parameter Presolve to value 1
  pre:solve = 1
Set parameter TimeLimit to value 3600
  lim:time = 3600
Set parameter BarConvTol to value 1e-09
  bar:convtol = 1e-09
Set parameter FeasibilityTol to value 1e-05
  alg:feastol = 1e-05
  sol:chk:feastolrel = 0
Set parameter MIPGap to value 1e-09
  mip:gap = 1e-09
Set parameter NumericFocus to value 1
  alg:numericfocus = 1
<<<<<<< HEAD

AMPL MP initial flat model has 534 variables (0 integer, 0 binary);
Objectives: 1 linear; 
Constraints:  58 linear; 136 quadratic;
Algebraic expressions:  34 div; 68 powconstexp;

AMPL MP final model has 772 variables (0 integer, 0 binary);
Objectives: 1 linear; 
Constraints:  92 linear; 136 quadratic;
Algebraic expressions:  34 div; 68 powconstexp;


=======
>>>>>>> 084e68c (add approximation result using gurobi solver)
Set parameter InfUnbdInfo to value 1
Gurobi Optimizer version 11.0.2 build v11.0.2rc0 (linux64 - "Ubuntu 25.04")

<<<<<<< HEAD
CPU model: INTEL(R) XEON(R) GOLD 6530, instruction set [SSE2|AVX|AVX2|AVX512]
Thread count: 32 physical cores, 64 logical processors, using up to 32 threads

Non-default parameters:
TimeLimit  3600
FeasibilityTol  1e-05
MIPGap  1e-09
BarConvTol  1e-09
InfUnbdInfo  1
NumericFocus  1
Presolve  1

Optimize a model with 92 rows, 772 columns and 642 nonzeros
Model fingerprint: 0x0b9f2dd7
Model has 34 general nonlinear constraints (1122 nonlinear terms)
Variable types: 772 continuous, 0 integer (0 binary)
=======
CPU model: 11th Gen Intel(R) Core(TM) i5-1135G7 @ 2.40GHz, instruction set [SSE2|AVX|AVX2|AVX512]
Thread count: 4 physical cores, 8 logical processors, using up to 8 threads

Optimize a model with 58 rows, 738 columns and 542 nonzeros
Model fingerprint: 0xe45641dd
Model has 170 quadratic constraints
Model has 68 general constraints
Variable types: 738 continuous, 0 integer (0 binary)
>>>>>>> 084e68c (add approximation result using gurobi solver)
Coefficient statistics:
  Matrix range     [1e+00, 1e+00]
  QMatrix range    [1e-03, 1e+01]
  QLMatrix range   [1e+00, 1e+00]
  Objective range  [1e+03, 2e+04]
<<<<<<< HEAD
  Bounds range     [2e-11, 2e+17]
=======
  Bounds range     [8e-18, 1e+19]
>>>>>>> 084e68c (add approximation result using gurobi solver)
  RHS range        [3e-02, 3e+03]
  QRHS range       [8e-18, 1e+02]
Warning: Model contains large bounds
<<<<<<< HEAD
Presolve model has 34 nlconstr
Added 1258 variables to disaggregate expressions.
Presolve removed 2 rows and 206 columns
Presolve time: 0.01s
Presolved: 3661 rows, 1825 columns, 9363 nonzeros
Presolved model has 578 bilinear constraint(s)
Presolved model has 102 nonlinear constraint(s)
=======
Presolve added 204 rows and 4584 columns
Presolve time: 0.07s
Presolved: 2744 rows, 5832 columns, 21608 nonzeros
Presolved model has 68 SOS constraint(s)
Presolved model has 612 bilinear constraint(s)
Warning: Model contains variables with very large bounds participating
         in product terms.
         Presolve was not able to compute smaller bounds for these variables.
         Consider bounding these variables or reformulating the model.
>>>>>>> 084e68c (add approximation result using gurobi solver)


<<<<<<< HEAD
Variable types: 1825 continuous, 0 integer (0 binary)

Root relaxation: objective 3.745842e+07, 863 iterations, 0.08 seconds (0.01 work units)
=======
Solving non-convex MIQCP

Variable types: 5832 continuous, 0 integer (0 binary)
Warning: very big Kappa = 8.12675e+14, try parameter NumericFocus

Root relaxation: objective 3.745842e+07, 1374 iterations, 0.09 seconds (0.03 work units)
>>>>>>> 084e68c (add approximation result using gurobi solver)

    Nodes    |    Current Node    |     Objective Bounds      |     Work
 Expl Unexpl |  Obj  Depth IntInf | Incumbent    BestBd   Gap | It/Node Time

<<<<<<< HEAD
     0     0 3.7458e+07    0  164          - 3.7458e+07      -     -    1s
     0     0 3.7458e+07    0  136          - 3.7458e+07      -     -    2s
     0     0 3.7458e+07    0  147          - 3.7458e+07      -     -    2s
     0     0 3.7458e+07    0  140          - 3.7458e+07      -     -    2s
     0     0 3.7458e+07    0  139          - 3.7458e+07      -     -    2s
     0     0 3.7458e+07    0  139          - 3.7458e+07      -     -    2s
     0     0 3.7458e+07    0  139          - 3.7458e+07      -     -    2s
     0     0 3.7458e+07    0  156          - 3.7458e+07      -     -    4s
     0     2 3.7458e+07    0  156          - 3.7458e+07      -     -   11s
   649   746 3.7458e+07   15  171          - 3.7458e+07      -  22.9   15s
  2068  2412 infeasible   32               - 3.7458e+07      -  22.4   21s
  6847  4940 infeasible   78               - 3.7458e+07      -  18.8   27s
  NLP heuristic elapsed time = 5.02s
  8187  4942 3.7474e+07   11    0          - 3.7458e+07      -  20.2   34s
  8188  4942 3.7458e+07   43    0          - 3.7458e+07      -  20.2   35s
  8200  4950 3.7458e+07   42    0          - 3.7458e+07      -  20.1   43s
  8201  4954 3.7489e+07   10  172          - 3.7458e+07      -  20.3   52s
  8839  5473 4.4348e+07   22  161          - 3.7487e+07      -  20.7   55s
 12014  6839 4.4603e+07   55  171          - 3.7487e+07      -  22.4   60s
 13999  7092 infeasible   76               - 3.7494e+07      -  22.8   79s
 14066  8237 4.4665e+07   78  157          - 3.7494e+07      -  23.1   82s
 16735  8318 3.7494e+07   43  158          - 3.7494e+07      -  21.6   85s
 22262  9416 3.7494e+07   66  158          - 3.7494e+07      -  21.1   90s
 28877 15397 3.7494e+07   53  161          - 3.7494e+07      -  19.2   98s
 33454 18755 3.7612e+07   85  170          - 3.7494e+07      -  17.3  101s
 42322 24887 3.7531e+07  104  159          - 3.7494e+07      -  14.4  105s
 49931 30184 3.7494e+07  657  159          - 3.7494e+07      -  12.7  110s
 62936 37383 infeasible  987               - 3.7494e+07      -  10.6  118s
 68030 40171 infeasible 1108               - 3.7494e+07      -   9.9  120s
 78703 46120 infeasible 1363               - 3.7494e+07      -   8.8  128s
 84219 49534 infeasible 1498               - 3.7494e+07      -   8.3  131s
 89937 53012 infeasible 1638               - 3.7494e+07      -   7.9  135s
 101607 59777 infeasible 1919               - 3.7494e+07      -   7.1  144s
 107124 63073 infeasible 2054               - 3.7494e+07      -   6.8  149s
 112582 66350 infeasible 2186               - 3.7494e+07      -   6.5  154s
 118045 69662 infeasible 2315               - 3.7494e+07      -   6.3  157s
 128631 75997 infeasible 2565               - 3.7494e+07      -   5.8  162s
 133800 79084 infeasible 2686               - 3.7494e+07      -   5.6  165s
 144192 86031 infeasible 2929               - 3.7494e+07      -   5.2  172s
 149972 90044 infeasible 3063               - 3.7494e+07      -   5.0  177s
 156199 92190 infeasible 3208               - 3.7494e+07      -   4.9  181s
 161933 95428 infeasible 3351               - 3.7494e+07      -   4.8  186s
 167929 98877 infeasible 3506               - 3.7494e+07      -   4.7  191s
 173812 102150 infeasible 3660               - 3.7494e+07      -   4.6  195s
 180159 105318 infeasible 3813               - 3.7494e+07      -   4.5  200s
 186307 108522 infeasible 3963               - 3.7494e+07      -   4.4  206s
 192705 110257 infeasible 4112               - 3.7494e+07      -   4.3  213s
 197874 113088 infeasible 4259               - 3.7494e+07      -   4.3  219s
 203547 116180 infeasible 4420               - 3.7494e+07      -   4.3  225s
 209715 119180 infeasible 4580               - 3.7494e+07      -   4.3  230s
 220939 125100 infeasible 4888               - 3.7494e+07      -   4.3  238s
 226911 129167 infeasible 5044               - 3.7494e+07      -   4.2  242s
 233906 133502 infeasible 5215               - 3.7494e+07      -   4.1  248s
 240757 137586 infeasible 5385               - 3.7494e+07      -   4.0  253s
 247617 142064 infeasible 5554               - 3.7494e+07      -   4.0  260s
 255229 147087 3.7494e+07 5738  157          - 3.7494e+07      -   3.9  266s
 263804 151596 infeasible 5938               - 3.7494e+07      -   3.8  272s
 272461 156863 infeasible 6137               - 3.7494e+07      -   3.7  281s
 282040 162538 infeasible 6353               - 3.7494e+07      -   3.6  289s
 292657 168575 infeasible 6589               - 3.7494e+07      -   3.5  296s
 302538 174689 infeasible 6823               - 3.7494e+07      -   3.4  305s
 312388 180465 infeasible 7056               - 3.7494e+07      -   3.3  312s
 322344 186051 infeasible 7287               - 3.7494e+07      -   3.2  318s
 332078 191861 infeasible 7516               - 3.7494e+07      -   3.1  326s
 343056 198724 infeasible 7766               - 3.7494e+07      -   3.1  336s
 354995 206009 infeasible 8039               - 3.7494e+07      -   3.0  346s
 368378 214257 infeasible 8337               - 3.7494e+07      -   2.9  355s
 382784 223372 infeasible 8662               - 3.7494e+07      -   2.8  366s
 398553 232780 infeasible 9016               - 3.7494e+07      -   2.7  375s
 413481 241911 infeasible 9367               - 3.7494e+07      -   2.6  387s
 428382 250780 infeasible 9716               - 3.7494e+07      -   2.5  398s
 443149 260221 infeasible 10064               - 3.7494e+07      -   2.5  413s
 458804 271346 infeasible 10444               - 3.7494e+07      -   2.4  427s
 475151 281654 infeasible 10859               - 3.7494e+07      -   2.4  436s
 491881 292818 infeasible 11273               - 3.7494e+07      -   2.3  449s
 509621 304382 infeasible 11701               - 3.7494e+07      -   2.3  461s
 527611 316853 infeasible 12127               - 3.7494e+07      -   2.2  474s
 544764 328959 infeasible 12550               - 3.7494e+07      -   2.2  486s
 562480 343288 infeasible 12971               - 3.7494e+07      -   2.1  499s
 578555 357707 3.7494e+07 6040  162          - 3.7494e+07      -   2.1  509s
 594574 372506 3.7494e+07 6297  162          - 3.7494e+07      -   2.1  517s
 610393 386983 3.7494e+07 6564  162          - 3.7494e+07      -   2.0  532s
 626510 387027 3.7494e+07 6812  162          - 3.7494e+07      -   2.0  553s
 626560 402185 3.7494e+07 6822  162          - 3.7494e+07      -   2.0  568s
 643686 417367 3.7494e+07 7091  162          - 3.7494e+07      -   2.0  578s
 660462 432459 3.7494e+07 7350  162          - 3.7494e+07      -   1.9  595s
 677220 447497 3.7494e+07 7628  162          - 3.7494e+07      -   1.9  608s
 693930 462548 3.7494e+07 7896  162          - 3.7494e+07      -   1.9  620s
 710605 477576 3.7494e+07 8164  162          - 3.7494e+07      -   1.8  635s
 727261 492583 3.7494e+07 8422  162          - 3.7494e+07      -   1.8  648s
 743892 507571 3.7494e+07 8699  162          - 3.7494e+07      -   1.8  661s
 760500 522527 3.7494e+07 8966  162          - 3.7494e+07      -   1.8  674s
 777070 537470 3.7494e+07 9223  162          - 3.7494e+07      -   1.7  689s
 793629 552402 3.7494e+07 9499  162          - 3.7494e+07      -   1.7  703s
 810179 567313 3.7494e+07 9765  162          - 3.7494e+07      -   1.7  713s
 826710 582212 3.7494e+07 10021  162          - 3.7494e+07      -   1.7  726s
 843233 597170 3.7494e+07 10296  162          - 3.7494e+07      -   1.6  741s
 859765 612376 3.7494e+07 10561  162          - 3.7494e+07      -   1.6  754s
 876399 627562 3.7494e+07 10826  162          - 3.7494e+07      -   1.6  766s
 893019 642729 3.7494e+07 11081  162          - 3.7494e+07      -   1.6  779s
 909618 657878 3.7494e+07 11345  162          - 3.7494e+07      -   1.5  795s
 926197 670264 3.7494e+07 11609  162          - 3.7494e+07      -   1.5  813s
 943927 680195 3.7494e+07 11882  162          - 3.7494e+07      -   1.5  827s
 960324 690098 3.7494e+07 12145  162          - 3.7494e+07      -   1.5  837s
 976665 699957 3.7494e+07 12398  162          - 3.7494e+07      -   1.5  851s
 992958 709110 3.7494e+07 12669  162          - 3.7494e+07      -   1.4  861s
 1009547 717871 3.7494e+07 12930  162          - 3.7494e+07      -   1.4  871s
 1025746 726088 3.7494e+07 12996  162          - 3.7494e+07      -   1.4  887s
 1042239 733758 3.7494e+07 12995  162          - 3.7494e+07      -   1.4  901s
 1058343 741391 3.7494e+07 12996  162          - 3.7494e+07      -   1.4  912s
 1074410 749553 3.7494e+07 12996  162          - 3.7494e+07      -   1.4  924s
 1090076 755063 3.7494e+07 8849  162          - 3.7494e+07      -   1.4  942s
 1107074 759573 3.7494e+07 9096  162          - 3.7494e+07      -   1.3  954s
 1123022 764046 3.7494e+07 9361  162          - 3.7494e+07      -   1.3  966s
 1138931 766590 3.7494e+07 9606  162          - 3.7494e+07      -   1.3  976s
 1154907 768983 3.7494e+07 9869  162          - 3.7494e+07      -   1.3  988s
 1170736 771339 3.7494e+07 10112  162          - 3.7494e+07      -   1.3 1000s
 1186528 772747 3.7494e+07 10373  162          - 3.7494e+07      -   1.3 1010s
 1202366 774020 3.7494e+07 10614  162          - 3.7494e+07      -   1.3 1022s
 1218071 775260 3.7494e+07 10863  162          - 3.7494e+07      -   1.2 1034s
 1233743 775536 3.7494e+07 11111  162          - 3.7494e+07      -   1.2 1048s
 1249443 775711 3.7494e+07 11358  162          - 3.7494e+07      -   1.2 1060s
 1265044 768725 3.7494e+07 11604  162          - 3.7494e+07      -   1.2 1082s
 1272092 780651 3.7494e+07 11615  162          - 3.7494e+07      -   1.2 1106s
 1297698 784067 3.7494e+07 12115  162          - 3.7494e+07      -   1.2 1121s
 1313268 787212 3.7494e+07 12352  162          - 3.7494e+07      -   1.2 1136s
 1328911 789738 3.7494e+07 12598  162          - 3.7494e+07      -   1.2 1148s
 1344575 791117 3.7494e+07 12843  162          - 3.7494e+07      -   1.2 1159s
 1360126 792588 3.7494e+07 13087  162          - 3.7494e+07      -   1.2 1169s
 1375625 794026 3.7494e+07 13340  162          - 3.7494e+07      -   1.1 1179s
 1391091 795430 3.7494e+07 13573  162          - 3.7494e+07      -   1.1 1192s
 1406523 796810 3.7494e+07 13824  162          - 3.7494e+07      -   1.1 1206s
 1421931 798160 3.7494e+07 14065  162          - 3.7494e+07      -   1.1 1216s
 1437309 799478 3.7494e+07 14305  162          - 3.7494e+07      -   1.1 1227s
 1452655 800775 3.7494e+07 14544  162          - 3.7494e+07      -   1.1 1240s
 1467980 802585 3.7494e+07 14773  162          - 3.7494e+07      -   1.1 1254s
 1483002 804736 3.7494e+07 15020  162          - 3.7494e+07      -   1.1 1268s
 1498227 806934 3.7494e+07 15257  162          - 3.7494e+07      -   1.1 1282s
 1513451 809100 3.7494e+07 15484  162          - 3.7494e+07      -   1.1 1292s
 1528643 812724 3.7494e+07 15729  162          - 3.7494e+07      -   1.0 1307s
 1543329 816763 3.7494e+07 15964  162          - 3.7494e+07      -   1.0 1324s
 1552841 816763 infeasible 6535               - 3.7494e+07      -   1.0 1325s
 1558394 821830 3.7494e+07 16189  162          - 3.7494e+07      -   1.1 1339s
 1564739 821830 4.8141e+07   63  174          - 3.7494e+07      -   1.0 1340s
 1573449 826939 3.7494e+07 16433  162          - 3.7494e+07      -   1.0 1355s
 1588470 833199 3.7494e+07 16667  162          - 3.7494e+07      -   1.0 1374s
 1603302 838667 3.7494e+07 16901  162          - 3.7494e+07      -   1.0 1389s
 1618464 844823 3.7494e+07 17125  162          - 3.7494e+07      -   1.0 1405s
 1633074 842696 3.7494e+07 17368  162          - 3.7494e+07      -   1.0 1426s
 1642597 836940 infeasible 17386               - 3.7494e+07      -   1.1 1459s
 1654934 836940 3.9343e+07   98  163          - 3.7494e+07      -   1.1 1460s
 1660311 838394 infeasible 1304               - 3.7494e+07      -   1.1 1469s
 1671923 843860 3.9297e+07   60  173          - 3.7494e+07      -   1.2 1483s
 1685185 843898 3.9297e+07   49  142          - 3.7494e+07      -   1.2 1499s
 1685247 850660 3.9297e+07   50  142          - 3.7494e+07      -   1.2 1511s
 1698225 859825 3.9297e+07  296  141          - 3.7494e+07      -   1.2 1521s
 1711012 870427 3.9297e+07  541  141          - 3.7494e+07      -   1.3 1529s
 1723446 880550 3.9297e+07  782  141          - 3.7494e+07      -   1.3 1542s
 1737073 892223 3.9297e+07 1017  141          - 3.7494e+07      -   1.3 1549s
 1746230 892223 4.9165e+07 4173  166          - 3.7494e+07      -   1.3 1550s
 1750268 903332 3.9297e+07 1259  141          - 3.7494e+07      -   1.3 1561s
 1765403 914830 3.9297e+07 1500  141          - 3.7494e+07      -   1.3 1571s
 1779703 926810 3.9297e+07 1750  141          - 3.7494e+07      -   1.3 1578s
 1793589 938734 3.9297e+07 1985  141          - 3.7494e+07      -   1.3 1586s
 1808361 950925 3.9297e+07 2228  141          - 3.7494e+07      -   1.3 1595s
 1822712 963677 3.9297e+07 2478  141          - 3.7494e+07      -   1.3 1601s
 1837480 976338 3.9297e+07 2712  141          - 3.7494e+07      -   1.3 1606s
 1852233 989054 3.9297e+07 2955  141          - 3.7494e+07      -   1.3 1616s
 1867081 1001890 3.9297e+07 3198  141          - 3.7494e+07      -   1.3 1622s
 1881991 1014493 3.9297e+07 3441  141          - 3.7494e+07      -   1.3 1631s
 1896922 1027448 3.9297e+07 3693  141          - 3.7494e+07      -   1.3 1640s
 1911729 1040684 3.9297e+07 3928  141          - 3.7494e+07      -   1.3 1649s
 1926317 1054118 3.9297e+07 4180  141          - 3.7494e+07      -   1.3 1659s
 1941109 1067719 3.9297e+07 4424  141          - 3.7494e+07      -   1.3 1670s
 1955984 1081310 3.9297e+07 4668  141          - 3.7494e+07      -   1.3 1678s
 1970849 1094908 3.9297e+07 4903  141          - 3.7494e+07      -   1.3 1687s
 1985723 1108514 3.9297e+07 5155  141          - 3.7494e+07      -   1.3 1696s
 2000609 1122143 3.9297e+07 5399  141          - 3.7494e+07      -   1.3 1705s
 2015512 1135763 3.9297e+07 5643  141          - 3.7494e+07      -   1.3 1713s
 2030256 1149434 3.9297e+07 5887  141          - 3.7494e+07      -   1.3 1721s
 2044731 1163111 3.9297e+07 6122  141          - 3.7494e+07      -   1.3 1730s
 2059210 1176795 3.9297e+07 6376  141          - 3.7494e+07      -   1.3 1739s
 2073686 1190497 3.9297e+07 6611  141          - 3.7494e+07      -   1.3 1749s
 2088162 1204203 3.9297e+07 6856  141          - 3.7494e+07      -   1.3 1758s
 2102658 1218095 3.9297e+07 7101  141          - 3.7494e+07      -   1.3 1767s
 2116838 1231200 3.9297e+07 7355  141          - 3.7494e+07      -   1.3 1778s
 2131099 1244906 3.9297e+07 7600  141          - 3.7494e+07      -   1.3 1786s
 2145291 1258961 3.9297e+07 7847  141          - 3.7494e+07      -   1.3 1794s
 2159516 1272287 3.9297e+07 8084  141          - 3.7494e+07      -   1.3 1806s
 2173688 1285694 3.9297e+07 8331  141          - 3.7494e+07      -   1.3 1815s
 2187793 1299370 3.9297e+07 8578  141          - 3.7494e+07      -   1.3 1826s
 2201707 1299488 3.9297e+07 8835  141          - 3.7494e+07      -   1.3 1841s
 2201835 1313060 3.9297e+07 8826  141          - 3.7494e+07      -   1.3 1851s
 2216243 1327010 3.9297e+07 9077  141          - 3.7494e+07      -   1.3 1860s
 2230391 1341263 3.9297e+07 9328  141          - 3.7494e+07      -   1.3 1870s
 2244854 1355606 3.9297e+07 9589  141          - 3.7494e+07      -   1.3 1880s
 2259361 1369911 3.9297e+07 9831  141          - 3.7494e+07      -   1.3 1890s
 2273832 1384222 3.9297e+07 10082  141          - 3.7494e+07      -   1.3 1898s
 2288309 1398528 3.9297e+07 10343  141          - 3.7494e+07      -   1.3 1906s
 2302779 1412845 3.9297e+07 10585  141          - 3.7494e+07      -   1.3 1916s
 2317262 1427188 3.9297e+07 10846  141          - 3.7494e+07      -   1.3 1927s
 2331771 1441100 3.9297e+07 11088  141          - 3.7494e+07      -   1.3 1937s
 2346143 1454965 3.9297e+07 11340  141          - 3.7494e+07      -   1.3 1950s
 2360234 1469080 3.9297e+07 11592  141          - 3.7494e+07      -   1.3 1959s
 2374705 1482788 3.9297e+07 11854  141          - 3.7494e+07      -   1.3 1971s
 2389027 1496244 3.9297e+07 12097  141          - 3.7494e+07      -   1.3 1981s
 2402999 1509898 3.9297e+07 12359  141          - 3.7494e+07      -   1.3 1991s
 2416909 1523717 3.9297e+07 12602  141          - 3.7494e+07      -   1.3 2003s
 2430950 1536595 3.9297e+07 12864  141          - 3.7494e+07      -   1.3 2014s
 2444968 1549764 3.9297e+07 13006  141          - 3.7494e+07      -   1.3 2026s
 2458581 1561404 3.9297e+07 13007  141          - 3.7494e+07      -   1.3 2038s
 2473091 1568282 3.9297e+07 13007  141          - 3.7494e+07      -   1.3 2052s
 2487703 1576241 3.9297e+07 13002  141          - 3.7494e+07      -   1.3 2066s
 2500602 1583699 infeasible 9204               - 3.7494e+07      -   1.4 2079s
 2512636 1595384 3.9297e+07  102  166          - 3.7494e+07      -   1.4 2104s
 2529259 1602101 4.1227e+07  165  141          - 3.7494e+07      -   1.4 2116s
 2542554 1609986 infeasible 16408               - 3.7494e+07      -   1.4 2134s
 2554355 1618247 infeasible 9533               - 3.7494e+07      -   1.5 2150s
 2566522 1627657 4.3921e+07  118  166          - 3.7494e+07      -   1.5 2162s
 2579208 1637103 4.3921e+07  341  164          - 3.7494e+07      -   1.5 2174s
 2591998 1639830 4.3921e+07  596  164          - 3.7494e+07      -   1.5 2191s
 2602309 1647823 4.3921e+07  851  164          - 3.7494e+07      -   1.6 2205s
 2615480 1656663 4.3921e+07 1107  164          - 3.7494e+07      -   1.6 2227s
 2629732 1664738 4.3921e+07 1363  164          - 3.7494e+07      -   1.6 2242s
 2644835 1675893 4.3921e+07 1619  164          - 3.7494e+07      -   1.6 2254s
 2657874 1687605 4.3921e+07 1876  164          - 3.7494e+07      -   1.6 2267s
 2671808 1687798 4.3921e+07 2125  164          - 3.7494e+07      -   1.6 2290s
 2672007 1700197 4.3921e+07 2133  164          - 3.7494e+07      -   1.6 2301s
 2685978 1713242 4.3921e+07 2385  164          - 3.7494e+07      -   1.6 2316s
 2700393 1726462 4.3921e+07 2652  164          - 3.7494e+07      -   1.6 2327s
 2714723 1740607 4.3921e+07 2912  164          - 3.7494e+07      -   1.7 2339s
 2729402 1755345 4.3921e+07 3172  164          - 3.7494e+07      -   1.7 2355s
 2744366 1770095 4.3921e+07 3432  164          - 3.7494e+07      -   1.7 2370s
 2759594 1784669 4.3921e+07 3684  164          - 3.7494e+07      -   1.7 2383s
 2775218 1799242 4.3921e+07 3953  164          - 3.7494e+07      -   1.7 2396s
 2790841 1813775 4.3921e+07 4205  164          - 3.7494e+07      -   1.7 2407s
 2806422 1828304 4.3921e+07 4465  164          - 3.7494e+07      -   1.7 2422s
 2821995 1842840 4.3921e+07 4725  164          - 3.7494e+07      -   1.7 2434s
 2837297 1857423 4.3921e+07 4985  164          - 3.7494e+07      -   1.7 2443s
 2852128 1872077 4.3921e+07 5244  164          - 3.7494e+07      -   1.7 2455s
 2867138 1887102 4.3921e+07 5504  164          - 3.7494e+07      -   1.7 2468s
 2882369 1902063 4.3921e+07 5764  164          - 3.7494e+07      -   1.7 2479s
 2887591 1902063 4.1640e+07 3539  174          - 3.7494e+07      -   1.7 2480s
 2897534 1917092 4.3921e+07 6034  164          - 3.7494e+07      -   1.7 2490s
 2912769 1932131 4.3921e+07 6285  164          - 3.7494e+07      -   1.7 2500s
 2928012 1947165 4.3921e+07 6555  164          - 3.7494e+07      -   1.7 2513s
 2943252 1962166 4.3921e+07 6806  164          - 3.7494e+07      -   1.7 2524s
 2958457 1977184 4.3921e+07 7066  164          - 3.7494e+07      -   1.7 2534s
 2973681 1992201 4.3921e+07 7326  164          - 3.7494e+07      -   1.6 2543s
 2988902 2007147 4.3921e+07 7586  164          - 3.7494e+07      -   1.6 2554s
 3004154 2021160 4.3921e+07 7846  164          - 3.7494e+07      -   1.6 2573s
 3019429 2035403 4.3921e+07 8116  164          - 3.7494e+07      -   1.6 2583s
 3034772 2049427 4.3921e+07 8378  164          - 3.7494e+07      -   1.6 2598s
 3050142 2063486 4.3921e+07 8630  164          - 3.7494e+07      -   1.6 2611s
 3065407 2077538 4.3921e+07 8892  164          - 3.7494e+07      -   1.6 2623s
 3080667 2092069 4.3921e+07 9154  164          - 3.7494e+07      -   1.6 2631s
 3095704 2106535 4.3921e+07 9416  164          - 3.7494e+07      -   1.6 2643s
 3110734 2121356 4.3921e+07 9687  164          - 3.7494e+07      -   1.7 2656s
 3125841 2135871 4.3921e+07 9939  164          - 3.7494e+07      -   1.7 2674s
 3141184 2150831 4.3921e+07 10201  164          - 3.7494e+07      -   1.7 2685s
 3156360 2151904 4.3921e+07 10463  164          - 3.7494e+07      -   1.7 2700s
 3157435 2167107 4.3921e+07 10464  164          - 3.7494e+07      -   1.7 2709s
 3172844 2182308 4.3921e+07 10728  164          - 3.7494e+07      -   1.6 2719s
 3188251 2197518 4.3921e+07 10992  164          - 3.7494e+07      -   1.6 2728s
 3203669 2212114 4.3921e+07 11256  164          - 3.7494e+07      -   1.6 2739s
 3218741 2226458 4.3921e+07 11530  164          - 3.7494e+07      -   1.6 2750s
 3233375 2240677 4.3921e+07 11794  164          - 3.7494e+07      -   1.7 2769s
 3248264 2254959 4.3921e+07 12058  164          - 3.7494e+07      -   1.7 2790s
 3263572 2269759 4.3921e+07 12322  164          - 3.7494e+07      -   1.7 2800s
 3278590 2283695 4.3921e+07 12586  164          - 3.7494e+07      -   1.7 2813s
 3293528 2297455 4.3921e+07 12850  164          - 3.7494e+07      -   1.7 2831s
 3308824 2310561 4.3921e+07 13003  164          - 3.7494e+07      -   1.7 2847s
 3323858 2321609 4.3921e+07 13005  164          - 3.7494e+07      -   1.7 2869s
 3339410 2332122 4.3921e+07 13004  164          - 3.7494e+07      -   1.7 2882s
 3353935 2338725 4.3921e+07 13005  164          - 3.7494e+07      -   1.7 2907s
 3366722 2347147 infeasible 6756               - 3.7494e+07      -   1.7 2922s
 3379176 2356521 infeasible 8068               - 3.7494e+07      -   1.7 2947s
 3392616 2365520 4.2507e+07   91  157          - 3.7494e+07      -   1.7 2961s
 3406511 2375108 4.2507e+07  166  155          - 3.7494e+07      -   1.7 2983s
 3421387 2384795 4.2507e+07  437  155          - 3.7494e+07      -   1.7 2999s
 3437380 2396085 4.2507e+07  703  155          - 3.7494e+07      -   1.7 3020s
 3452174 2405951 4.2507e+07  963  155          - 3.7494e+07      -   1.7 3040s
 3467466 2417942 4.2507e+07 1236  155          - 3.7494e+07      -   1.7 3054s
 3476036 2417942 8.9263e+07  124  155          - 3.7494e+07      -   1.7 3055s
 3484067 2432078 4.2507e+07 1530  155          - 3.7494e+07      -   1.7 3065s
 3500099 2444329 4.2507e+07 1821  155          - 3.7494e+07      -   1.7 3083s
 3515672 2456582 4.2507e+07 2080  155          - 3.7494e+07      -   1.7 3094s
 3530441 2468929 4.2507e+07 2347  155          - 3.7494e+07      -   1.7 3106s
 3545586 2480660 4.2507e+07 2613  155          - 3.7494e+07      -   1.7 3119s
 3561579 2494031 4.2507e+07 2880  155          - 3.7494e+07      -   1.7 3132s
 3578378 2507612 4.2507e+07 3167  155          - 3.7494e+07      -   1.7 3143s
 3595283 2521598 4.2507e+07 3425  155          - 3.7494e+07      -   1.7 3154s
 3610917 2534853 4.2507e+07 3700  155          - 3.7494e+07      -   1.7 3165s
 3626938 2548416 4.2507e+07 3958  155          - 3.7494e+07      -   1.7 3175s
 3642787 2548157 4.2507e+07 4233  155          - 3.7494e+07      -   1.7 3194s
 3643366 2576451 4.2507e+07 4234  155          - 3.7494e+07      -   1.7 3246s
 3675366 2591090 4.2507e+07 4734  155          - 3.7494e+07      -   1.8 3260s
 3691399 2606497 4.2507e+07 5003  155          - 3.7494e+07      -   1.8 3269s
 3707246 2622000 4.2507e+07 5272  155          - 3.7494e+07      -   1.8 3276s
 3722839 2637381 4.2507e+07 5531  155          - 3.7494e+07      -   1.8 3285s
 3738372 2652853 4.2507e+07 5809  155          - 3.7494e+07      -   1.8 3297s
 3753854 2667828 4.2507e+07 6068  155          - 3.7494e+07      -   1.8 3308s
 3769905 2682680 4.2507e+07 6346  155          - 3.7494e+07      -   1.8 3317s
 3785917 2697988 4.2507e+07 6605  155          - 3.7494e+07      -   1.8 3330s
 3801781 2713534 4.2507e+07 6883  155          - 3.7494e+07      -   1.7 3338s
 3817349 2728503 4.2507e+07 7142  155          - 3.7494e+07      -   1.7 3356s
 3833450 2743631 4.2507e+07 7420  155          - 3.7494e+07      -   1.7 3372s
 3849308 2759446 4.2507e+07 7679  155          - 3.7494e+07      -   1.7 3382s
 3865169 2775254 4.2507e+07 7957  155          - 3.7494e+07      -   1.7 3392s
 3880991 2791074 4.2507e+07 8225  155          - 3.7494e+07      -   1.7 3404s
 3896821 2806900 4.2507e+07 8493  155          - 3.7494e+07      -   1.7 3414s
 3912669 2822706 4.2507e+07 8761  155          - 3.7494e+07      -   1.7 3424s
 3928493 2837462 4.2507e+07 9029  155          - 3.7494e+07      -   1.7 3439s
 3944753 2851771 4.2507e+07 9297  155          - 3.7494e+07      -   1.7 3458s
 3961228 2866830 4.2507e+07 9557  155          - 3.7494e+07      -   1.7 3474s
 3977337 2882602 4.2507e+07 9826  155          - 3.7494e+07      -   1.7 3484s
 3993531 2897997 4.2507e+07 10095  155          - 3.7494e+07      -   1.7 3495s
 4009974 2913910 4.2507e+07 10364  155          - 3.7494e+07      -   1.7 3507s
 4025921 2929715 4.2507e+07 10633  155          - 3.7494e+07      -   1.7 3518s
 4041996 2945616 4.2507e+07 10902  155          - 3.7494e+07      -   1.7 3529s
 4057921 2961475 4.2507e+07 11171  155          - 3.7494e+07      -   1.7 3540s
 4074054 2977270 4.2507e+07 11440  155          - 3.7494e+07      -   1.7 3550s
 4090055 2992952 4.2507e+07 11709  155          - 3.7494e+07      -   1.7 3563s
 4106413 3008761 4.2507e+07 11978  155          - 3.7494e+07      -   1.7 3573s
 4122506 3025067 4.2507e+07 12256  155          - 3.7494e+07      -   1.7 3585s
 4138812 3025260 4.2507e+07 12515  155          - 3.7494e+07      -   1.7 3600s

Cutting planes:
  RLT: 10

Explored 4139005 nodes (7016064 simplex iterations) in 3600.28 seconds (204.34 work units)
Thread count was 32 (of 64 available processors)

Solution count 0

Time limit reached
Best objective -, best bound 3.749377876098e+07, gap -
Gurobi 12.0.1: time limit, without a feasible solution
7.01606e+06 simplex iterations
4.139e+06 branching nodes
=======
     0     0 3.7458e+07    0  112          - 3.7458e+07      -     -    0s
     0     0 3.7458e+07    0  151          - 3.7458e+07      -     -    0s
     0     0 3.7458e+07    0  161          - 3.7458e+07      -     -    0s
     0     0 3.7458e+07    0  161          - 3.7458e+07      -     -    0s
     0     0 3.7458e+07    0  161          - 3.7458e+07      -     -    0s
     0     0 3.7458e+07    0  168          - 3.7458e+07      -     -    0s
     0     0 3.7458e+07    0  171          - 3.7458e+07      -     -    1s
     0     0 3.7458e+07    0  170          - 3.7458e+07      -     -    1s
     0     0 3.7458e+07    0  173          - 3.7458e+07      -     -    1s
     0     0 3.7458e+07    0  172          - 3.7458e+07      -     -    1s
     0     0 3.7458e+07    0  172          - 3.7458e+07      -     -    1s
     0     2 3.7458e+07    0  129          - 3.7458e+07      -     -    1s
   405   287 infeasible   33               - 3.7458e+07      -  21.5    6s
   824   432 3.7458e+07   50  195          - 3.7458e+07      -  39.4   10s
  1629   738 3.7459e+07  111  166          - 3.7458e+07      -  35.7   17s

Explored 2045 nodes (65318 simplex iterations) in 17.29 seconds (11.51 work units)
Thread count was 8 (of 8 available processors)

Solution count 0

Model is infeasible
Best objective -, best bound -, gap -
Gurobi 11.0.2: infeasible problem
65318 simplex iterations
2045 branching nodes

suffix dunbdd OUT;
>>>>>>> 084e68c (add approximation result using gurobi solver)
*******************************************************************************

Constraints violation:


Sum of constraints violation: 35781.0869
*******************************************************************************

*******************************************************************************

Constraint 2 violations:


Sum of violation of original con2: 0.0
Sum of violation of approx con2: 0.0
*******************************************************************************

Absolute and relative violations between original and approximation constraint 2:


Con2 sum of absolute violation: 0.0
Con2 sum of relative violation: 0.0
*******************************************************************************

Total cost using gurobi: 0.0
<<<<<<< HEAD
gurobi solve time: 3604.19 seconds
=======
gurobi solve time: 17.33 seconds
>>>>>>> 084e68c (add approximation result using gurobi solver)
*******************************************************************************

